(declare-const a Real)
(declare-const b Real)
(declare-const c Real)
(assert (= (+ a b c) 3))
(assert (> a 0))
(assert (> b 0))
(assert (> c 0))
(assert (not (<= (+ (* (pow (* (pow c (* 67264 (pow a 4))) (pow (* b (pow a 3)) (* 71680 b))) (pow (+ (* 67264 (pow a 4)) (* 71680 b)) -1)) (+ (* -71680 b) (* -67264 (pow a 4)))) (* -389120 a (pow c 4)) (* -389120 b (pow a 4)) (* -378560 c (pow b 4)) (* -77824 a (pow b 4)) (* -77824 b (pow c 4)) (* -71680 (pow a 2) (pow c 3)) (* 51200 (pow b 3) (pow c 2)) (* 71680 (pow a 2) (pow b 3)) (* 71680 (pow b 2) (pow c 3)) (* 194560 (pow a 3) (pow c 2)) (* 17280 c (pow a 2) (pow b 2)) (* 344064 a b (pow c 3)) (* 386304 a c (pow b 3)) (* 386304 b c (pow a 3))) 0)))
(check-sat)
(get-model)
(exit)